32      4       
11      11      20      13      
0       0       0       0       0       3       2       3       4       
8       0       2       0       10      4       5       7       9       10      
6       2       11      0       0       2       5       9       
9       0       3       0       3       2       5       9       
8       8       0       0       7       1       6       
9       0       5       8       0       1       8       
2       0       0       15      4       1       8       
4       5       8       0       0       2       11      18      
5       0       6       1       0       2       11      18      
9       0       0       11      4       2       11      18      
10      3       0       0       11      3       12      17      20      
8       11      0       0       1       2       13      14      
9       0       0       3       13      2       15      19      
8       11      4       0       0       2       16      19      
6       8       7       0       0       1       16      
6       0       8       0       13      2       21      22      
10      0       0       5       7       2       23      25      
2       1       11      0       0       1       19      
7       0       0       17      1       2       24      25      
8       4       0       8       0       2       24      25      
2       5       3       0       0       1       23      
1       3       0       20      0       2       25      26      
2       9       0       0       1       1       24      
6       0       4       0       11      3       26      27      31      
9       0       5       7       0       3       27      28      31      
6       8       0       0       6       2       28      30      
6       0       0       4       6       2       29      30      
3       1       0       12      0       1       29      
8       0       2       17      0       1       32      
9       4       0       14      0       1       32      
1       0       4       8       0       1       32      
0       0       0       0       0       0       
